NAME : netgen23-2-1
COMMENT : Generated using the function generateClusteredNetwork from the R-package netgen (Bossek,2015) - Number of clusters: 2
TYPE : TSP
DIMENSION : 23
EDGE_WEIGHT_TYPE : EUC_2D
NODE_COORD_SECTION
1 47.577205014 89.6922933353
2 57.6904886025 97.1869246355
3 79.6137814782 96.5646194149
4 53.5948457691 87.9129274637
5 57.7331991799 94.8036514629
6 56.7419612797 99.2822268372
7 52.8402506505 99.2277816708
8 50.0332777617 95.4123445269
9 63.1491611856 98.3166708996
10 66.6154194524 96.7699638174
11 64.1742099419 93.9480286552
12 39.3078186127 22.6068597524
13 45.2989765382 31.1255701621
14 40.5103512649 29.5207071865
15 39.644721287 38.942284199
16 54.2748756426 41.0978406884
17 41.4311412968 43.096926969
18 42.6507394491 47.316913346
19 49.4736518176 29.3625495284
20 38.1619434346 23.5654450601
21 36.2651607638 20.3394435258
22 54.3124401166 39.7974615639
23 43.0732066356 35.201356572
EOF
